(declare-fun temp6528_1 () (_ BitVec 64))
(declare-fun var461682 () (_ BitVec 64))
(declare-fun var461681 () (_ BitVec 64))
(declare-fun var134653 () (_ BitVec 64))
(declare-fun var528535 () (_ BitVec 64))
(declare-fun var594392 () (_ BitVec 64))
(declare-fun temp6528_2 () (_ BitVec 64))
(declare-fun var2494037 () (_ BitVec 64))
(declare-fun var2494042 () (_ BitVec 64))
(declare-fun temp6528_3 () (_ BitVec 64))
(declare-fun var2690645 () (_ BitVec 64))
(declare-fun var2690650 () (_ BitVec 64))
(declare-fun temp6528_5 () (_ BitVec 64))
(declare-fun temp6528_4 () (_ BitVec 64))
(declare-fun temp6528_7 () (_ BitVec 64))
(declare-fun temp6528_6 () (_ BitVec 64))
(declare-fun temp6528_9 () (_ BitVec 64))
(declare-fun temp6528_8 () (_ BitVec 64))
(declare-fun temp6528_11 () (_ BitVec 64))
(declare-fun temp6528_10 () (_ BitVec 64))
(declare-fun temp6528_13 () (_ BitVec 64))
(declare-fun temp6528_12 () (_ BitVec 64))
(declare-fun temp6528_15 () (_ BitVec 64))
(declare-fun temp6528_14 () (_ BitVec 64))
(declare-fun temp6528_17 () (_ BitVec 64))
(declare-fun temp6528_16 () (_ BitVec 64))
(declare-fun temp6528_19 () (_ BitVec 64))
(declare-fun temp6528_18 () (_ BitVec 64))
(declare-fun temp6528_21 () (_ BitVec 64))
(declare-fun temp6528_20 () (_ BitVec 64))
(declare-fun temp6528_23 () (_ BitVec 64))
(declare-fun temp6528_22 () (_ BitVec 64))
(declare-fun temp6528_25 () (_ BitVec 64))
(declare-fun temp6528_24 () (_ BitVec 64))
(declare-fun temp6528_27 () (_ BitVec 64))
(declare-fun temp6528_26 () (_ BitVec 64))
(declare-fun temp6528_29 () (_ BitVec 64))
(declare-fun temp6528_28 () (_ BitVec 64))
(declare-fun temp6528_31 () (_ BitVec 64))
(declare-fun temp6528_30 () (_ BitVec 64))
(declare-fun temp6528_33 () (_ BitVec 64))
(declare-fun temp6528_32 () (_ BitVec 64))
(declare-fun temp6528_35 () (_ BitVec 64))
(declare-fun temp6528_34 () (_ BitVec 64))
(declare-fun temp6528_37 () (_ BitVec 64))
(declare-fun temp6528_36 () (_ BitVec 64))
(declare-fun temp6528_39 () (_ BitVec 64))
(declare-fun temp6528_38 () (_ BitVec 64))
(declare-fun temp6528_41 () (_ BitVec 64))
(declare-fun temp6528_40 () (_ BitVec 64))
(declare-fun temp6528_43 () (_ BitVec 64))
(declare-fun temp6528_42 () (_ BitVec 64))
(declare-fun temp6528_45 () (_ BitVec 64))
(declare-fun temp6528_44 () (_ BitVec 64))
(declare-fun temp6528_47 () (_ BitVec 64))
(declare-fun temp6528_46 () (_ BitVec 64))
(declare-fun temp6528_49 () (_ BitVec 64))
(declare-fun temp6528_48 () (_ BitVec 64))
(declare-fun temp6528_51 () (_ BitVec 64))
(declare-fun temp6528_50 () (_ BitVec 64))
(declare-fun temp6528_53 () (_ BitVec 64))
(declare-fun temp6528_52 () (_ BitVec 64))
(declare-fun temp6528_55 () (_ BitVec 64))
(declare-fun temp6528_54 () (_ BitVec 64))
(declare-fun temp6528_57 () (_ BitVec 64))
(declare-fun temp6528_56 () (_ BitVec 64))
(declare-fun temp6528_58 () (_ BitVec 64))
(declare-fun var3673685 () (_ BitVec 64))
(declare-fun var3673690 () (_ BitVec 64))
(assert (= temp6528_1 #x0000000000000007))
(assert (= var461682 temp6528_1))
(assert (= var461681 var461682))
(assert (= var134653 var461681))
(assert (= var528535 var134653))
(assert (= var594392 var528535))
(assert (= temp6528_2 #x0000000000000000))
(assert (= var2494037 temp6528_2))
(assert (= var2494042 var2494037))
(assert (= temp6528_3 #x0000000000000000))
(assert (= var2690645 temp6528_3))
(assert (= var2690650 var2690645))
(assert (= temp6528_5 #x0000000000000000))
(assert (= temp6528_4 temp6528_5))
(assert (= temp6528_7 #x0000000000000000))
(assert (= temp6528_6 temp6528_7))
(assert (= temp6528_9 #x0000000000000000))
(assert (= temp6528_8 temp6528_9))
(assert (= temp6528_11 #x0000000000000000))
(assert (= temp6528_10 temp6528_11))
(assert (= temp6528_13 #x0000000000000000))
(assert (= temp6528_12 temp6528_13))
(assert (= temp6528_15 #x0000000000000000))
(assert (= temp6528_14 temp6528_15))
(assert (= temp6528_17 #x0000000000000000))
(assert (= temp6528_16 temp6528_17))
(assert (= temp6528_19 #x0000000000000000))
(assert (= temp6528_18 temp6528_19))
(assert (= temp6528_21 #x0000000000000000))
(assert (= temp6528_20 temp6528_21))
(assert (= temp6528_23 #x0000000000000000))
(assert (= temp6528_22 temp6528_23))
(assert (= temp6528_25 #x0000000000000000))
(assert (= temp6528_24 temp6528_25))
(assert (= temp6528_27 #x0000000000000000))
(assert (= temp6528_26 temp6528_27))
(assert (= temp6528_29 #x0000000000000000))
(assert (= temp6528_28 temp6528_29))
(assert (= temp6528_31 #x0000000000000000))
(assert (= temp6528_30 temp6528_31))
(assert (= temp6528_33 #x0000000000000000))
(assert (= temp6528_32 temp6528_33))
(assert (= temp6528_35 #x0000000000000000))
(assert (= temp6528_34 temp6528_35))
(assert (= temp6528_37 #x0000000000000000))
(assert (= temp6528_36 temp6528_37))
(assert (= temp6528_39 #x0000000000000000))
(assert (= temp6528_38 temp6528_39))
(assert (= temp6528_41 #x0000000000000000))
(assert (= temp6528_40 temp6528_41))
(assert (= temp6528_43 #x0000000000000000))
(assert (= temp6528_42 temp6528_43))
(assert (= temp6528_45 #x0000000000000000))
(assert (= temp6528_44 temp6528_45))
(assert (= temp6528_47 #x0000000000000000))
(assert (= temp6528_46 temp6528_47))
(assert (= temp6528_49 #x0000000000000000))
(assert (= temp6528_48 temp6528_49))
(assert (= temp6528_51 #x0000000000000000))
(assert (= temp6528_50 temp6528_51))
(assert (= temp6528_53 #x0000000000000000))
(assert (= temp6528_52 temp6528_53))
(assert (= temp6528_55 #x0000000000000000))
(assert (= temp6528_54 temp6528_55))
(assert (= temp6528_57 #x0000000000000000))
(assert (= temp6528_56 temp6528_57))
(assert (= temp6528_58 #x0000000000000000))
(assert (= var3673685 temp6528_58))
(assert (= var3673690 var3673685))
(model-add temp6528_1 () (_ BitVec 64) #x0000000000000007)
(model-add var461682 () (_ BitVec 64) #x0000000000000007)
(model-add var461681 () (_ BitVec 64) #x0000000000000007)
(model-add var134653 () (_ BitVec 64) #x0000000000000007)
(model-add var528535 () (_ BitVec 64) #x0000000000000007)
(model-add var594392 () (_ BitVec 64) #x0000000000000007)
(model-add temp6528_2 () (_ BitVec 64) #x0000000000000000)
(model-add var2494037 () (_ BitVec 64) #x0000000000000000)
(model-add var2494042 () (_ BitVec 64) #x0000000000000000)
(model-add temp6528_3 () (_ BitVec 64) #x0000000000000000)
(model-add var2690645 () (_ BitVec 64) #x0000000000000000)
(model-add var2690650 () (_ BitVec 64) #x0000000000000000)
(model-add temp6528_5 () (_ BitVec 64) #x0000000000000000)
(model-add temp6528_4 () (_ BitVec 64) #x0000000000000000)
(model-add temp6528_7 () (_ BitVec 64) #x0000000000000000)
(model-add temp6528_6 () (_ BitVec 64) #x0000000000000000)
(model-add temp6528_9 () (_ BitVec 64) #x0000000000000000)
(model-add temp6528_8 () (_ BitVec 64) #x0000000000000000)
(model-add temp6528_11 () (_ BitVec 64) #x0000000000000000)
(model-add temp6528_10 () (_ BitVec 64) #x0000000000000000)
(model-add temp6528_13 () (_ BitVec 64) #x0000000000000000)
(model-add temp6528_12 () (_ BitVec 64) #x0000000000000000)
(model-add temp6528_15 () (_ BitVec 64) #x0000000000000000)
(model-add temp6528_14 () (_ BitVec 64) #x0000000000000000)
(model-add temp6528_17 () (_ BitVec 64) #x0000000000000000)
(model-add temp6528_16 () (_ BitVec 64) #x0000000000000000)
(model-add temp6528_19 () (_ BitVec 64) #x0000000000000000)
(model-add temp6528_18 () (_ BitVec 64) #x0000000000000000)
(model-add temp6528_21 () (_ BitVec 64) #x0000000000000000)
(model-add temp6528_20 () (_ BitVec 64) #x0000000000000000)
(model-add temp6528_23 () (_ BitVec 64) #x0000000000000000)
(model-add temp6528_22 () (_ BitVec 64) #x0000000000000000)
(model-add temp6528_25 () (_ BitVec 64) #x0000000000000000)
(model-add temp6528_24 () (_ BitVec 64) #x0000000000000000)
(model-add temp6528_27 () (_ BitVec 64) #x0000000000000000)
(model-add temp6528_26 () (_ BitVec 64) #x0000000000000000)
(model-add temp6528_29 () (_ BitVec 64) #x0000000000000000)
(model-add temp6528_28 () (_ BitVec 64) #x0000000000000000)
(model-add temp6528_31 () (_ BitVec 64) #x0000000000000000)
(model-add temp6528_30 () (_ BitVec 64) #x0000000000000000)
(model-add temp6528_33 () (_ BitVec 64) #x0000000000000000)
(model-add temp6528_32 () (_ BitVec 64) #x0000000000000000)
(model-add temp6528_35 () (_ BitVec 64) #x0000000000000000)
(model-add temp6528_34 () (_ BitVec 64) #x0000000000000000)
(model-add temp6528_37 () (_ BitVec 64) #x0000000000000000)
(model-add temp6528_36 () (_ BitVec 64) #x0000000000000000)
(model-add temp6528_39 () (_ BitVec 64) #x0000000000000000)
(model-add temp6528_38 () (_ BitVec 64) #x0000000000000000)
(model-add temp6528_41 () (_ BitVec 64) #x0000000000000000)
(model-add temp6528_40 () (_ BitVec 64) #x0000000000000000)
(model-add temp6528_43 () (_ BitVec 64) #x0000000000000000)
(model-add temp6528_42 () (_ BitVec 64) #x0000000000000000)
(model-add temp6528_45 () (_ BitVec 64) #x0000000000000000)
(model-add temp6528_44 () (_ BitVec 64) #x0000000000000000)
(model-add temp6528_47 () (_ BitVec 64) #x0000000000000000)
(model-add temp6528_46 () (_ BitVec 64) #x0000000000000000)
(model-add temp6528_49 () (_ BitVec 64) #x0000000000000000)
(model-add temp6528_48 () (_ BitVec 64) #x0000000000000000)
(model-add temp6528_51 () (_ BitVec 64) #x0000000000000000)
(model-add temp6528_50 () (_ BitVec 64) #x0000000000000000)
(model-add temp6528_53 () (_ BitVec 64) #x0000000000000000)
(model-add temp6528_52 () (_ BitVec 64) #x0000000000000000)
(model-add temp6528_55 () (_ BitVec 64) #x0000000000000000)
(model-add temp6528_54 () (_ BitVec 64) #x0000000000000000)
(model-add temp6528_57 () (_ BitVec 64) #x0000000000000000)
(model-add temp6528_56 () (_ BitVec 64) #x0000000000000000)
(model-add temp6528_58 () (_ BitVec 64) #x0000000000000000)
(model-add var3673685 () (_ BitVec 64) #x0000000000000000)
(model-add var3673690 () (_ BitVec 64) #x0000000000000000)









